(set-logic ALL)
(declare-fun var0 () String)
(assert (str.in_re var0 (re.++ (re.union (re.+ (str.to_re "00")) (re.+ (str.to_re "1"))) (re.++ (re.+ (re.union (str.to_re "222") (str.to_re "333"))) (re.++ (re.+ (re.+ (str.to_re "444"))) (re.++ (re.union (re.+ (str.to_re "555")) (re.+ (str.to_re "6"))) (re.++ (re.+ (re.union (str.to_re "77") (str.to_re "88"))) (re.++ (re.+ (re.+ (str.to_re "9"))) (re.++ (re.union (re.union (str.to_re "a") (str.to_re "bb")) (re.union (str.to_re "c") (str.to_re "ddd"))) (re.++ (re.* (re.* (str.to_re "ee"))) (re.++ (re.* (re.* (str.to_re "f"))) (re.++ (re.* (re.+ (str.to_re "g"))) (re.++ (re.union (re.+ (str.to_re "hhh")) (re.+ (str.to_re "iii"))) (re.++ (re.* (re.+ (str.to_re "jjj"))) (re.++ (re.union (re.+ (str.to_re "kkk")) (re.+ (str.to_re "l"))) (re.++ (re.+ (re.* (str.to_re "mmm"))) (re.++ (re.union (re.* (str.to_re "nn")) (re.* (str.to_re "o"))) (re.++ (re.union (re.+ (str.to_re "ppp")) (re.+ (str.to_re "qqq"))) (re.++ (re.+ (re.* (str.to_re "rr"))) (re.++ (re.* (re.+ (str.to_re "s"))) (re.++ (re.+ (re.* (str.to_re "tt"))) (re.++ (re.* (re.union (str.to_re "uuu") (str.to_re "vv"))) (re.++ (re.* (re.* (str.to_re "ww"))) (re.++ (re.* (re.+ (str.to_re "x"))) (re.++ (re.* (re.union (str.to_re "yyy") (str.to_re "zzz"))) (re.++ (re.+ (re.* (str.to_re "AA"))) (re.++ (re.* (re.union (str.to_re "BB") (str.to_re "CC"))) (re.++ (re.+ (re.+ (str.to_re "DD"))) (re.++ (re.+ (re.+ (str.to_re "E"))) (re.++ (re.union (re.union (str.to_re "F") (str.to_re "GGG")) (re.union (str.to_re "HHH") (str.to_re "III"))) (re.++ (re.* (re.+ (str.to_re "JJJ"))) (re.++ (re.union (re.+ (str.to_re "KKK")) (re.+ (str.to_re "L"))) (re.++ (re.* (re.+ (str.to_re "MMM"))) (re.++ (re.+ (re.union (str.to_re "NNN") (str.to_re "OOO"))) (re.++ (re.* (re.+ (str.to_re "PPP"))) (re.++ (re.* (re.* (str.to_re "Q"))) (re.++ (re.* (re.+ (str.to_re "RR"))) (re.++ (re.+ (re.* (str.to_re "SSS"))) (re.++ (re.* (re.* (str.to_re "T"))) (re.++ (re.union (re.+ (str.to_re "UUU")) (re.+ (str.to_re "VV"))) (re.++ (re.+ (re.* (str.to_re "WWW"))) (re.++ (re.+ (re.+ (str.to_re "XXX"))) (re.union (re.* (str.to_re "Y")) (re.* (str.to_re "ZZ")))))))))))))))))))))))))))))))))))))))))))))
(check-sat)